data/instances/vrp_files/train_76.vrp
NAME : 76
COMMENT : Generated instance No. 76
TYPE : CVRP
DIMENSION : 21
EDGE_WEIGHT_TYPE : EUC_2D
CAPACITY : 30
NODE_COORD_SECTION
 1 568 59
 2 967 549
 3 963 114
 4 490 169
 5 50 617
 6 207 587
 7 112 331
 8 781 437
 9 627 647
 10 843 324
 11 687 961
 12 730 489
 13 630 739
 14 612 16
 15 194 810
 16 272 731
 17 372 521
 18 67 181
 19 957 890
 20 652 459
 21 675 618
DEMAND_SECTION
1 0
2 3
3 8
4 7
5 7
6 6
7 5
8 10
9 8
10 5
11 9
12 9
13 1
14 6
15 7
16 3
17 7
18 7
19 2
20 7
21 1
DEPOT_SECTION
 1
 -1
EOF